Group 2's algortithm/model.mps
NAME solver
ROWS
 N  OBJ
 E  R0      
 E  R1      
 E  R2      
 E  R3      
 E  R4      
 E  R5      
 E  R6      
 E  R7      
 E  R8      
 E  R9      
 E  R10     
 E  R11     
 E  R12     
 E  R13     
 E  R14     
 E  R15     
 E  R16     
 E  R17     
 E  R18     
 E  R19     
 E  R20     
 E  R21     
 E  R22     
 E  R23     
 E  R24     
 E  R25     
 E  R26     
 E  R27     
 E  R28     
 E  R29     
 E  R30     
 E  R31     
 E  R32     
 E  R33     
 E  R34     
 E  R35     
 E  R36     
 E  R37     
 E  R38     
 E  R39     
 E  R40     
 E  R41     
 E  R42     
 E  R43     
 E  R44     
 E  R45     
 E  R46     
 E  R47     
 E  R48     
 E  R49     
 E  R50     
 E  R51     
 E  R52     
 E  R53     
 E  R54     
 E  R55     
 E  R56     
 E  R57     
 E  R58     
 E  R59     
 E  R60     
 E  R61     
 E  R62     
 E  R63     
 E  R64     
 E  R65     
 E  R66     
 E  R67     
 E  R68     
 E  R69     
 E  R70     
 E  R71     
COLUMNS
    MARKER    'MARKER'                 'INTORG'
    B0(2)     OBJ       7
    B0(2)     R0        1
    B0(2)     R36       1
    B1(2)     OBJ       7
    B1(2)     R1        1
    B1(2)     R37       1
    B2(2)     OBJ       7
    B2(2)     R2        1
    B2(2)     R38       1
    B3(2)     OBJ       7
    B3(2)     R3        1
    B3(2)     R39       1
    B4(2)     OBJ       7
    B4(2)     R4        1
    B4(2)     R40       1
    B5(2)     OBJ       7
    B5(2)     R5        1
    B5(2)     R41       1
    B6(2)     OBJ       7
    B6(2)     R0        -1
    B6(2)     R36       -1
    B7(2)     OBJ       7
    B7(2)     R1        -1
    B7(2)     R37       -1
    B8(2)     OBJ       7
    B8(2)     R2        -1
    B8(2)     R38       -1
    B9(2)     OBJ       7
    B9(2)     R3        -1
    B9(2)     R39       -1
    B10(2)    OBJ       7
    B10(2)    R4        -1
    B10(2)    R40       -1
    B11(2)    OBJ       7
    B11(2)    R5        -1
    B11(2)    R41       -1
    B12(2)    OBJ       4
    B12(2)    R0        1
    B12(2)    R6        1
    B13(2)    OBJ       4
    B13(2)    R1        1
    B13(2)    R7        1
    B14(2)    OBJ       4
    B14(2)    R2        1
    B14(2)    R8        1
    B15(2)    OBJ       4
    B15(2)    R3        1
    B15(2)    R9        1
    B16(2)    OBJ       4
    B16(2)    R4        1
    B16(2)    R10       1
    B17(2)    OBJ       4
    B17(2)    R5        1
    B17(2)    R11       1
    B18(2)    OBJ       4
    B18(2)    R0        -1
    B18(2)    R6        -1
    B19(2)    OBJ       4
    B19(2)    R1        -1
    B19(2)    R7        -1
    B20(2)    OBJ       4
    B20(2)    R2        -1
    B20(2)    R8        -1
    B21(2)    OBJ       4
    B21(2)    R3        -1
    B21(2)    R9        -1
    B22(2)    OBJ       4
    B22(2)    R4        -1
    B22(2)    R10       -1
    B23(2)    OBJ       4
    B23(2)    R5        -1
    B23(2)    R11       -1
    B24(2)    OBJ       4
    B24(2)    R6        1
    B24(2)    R18       1
    B25(2)    OBJ       4
    B25(2)    R7        1
    B25(2)    R19       1
    B26(2)    OBJ       4
    B26(2)    R8        1
    B26(2)    R20       1
    B27(2)    OBJ       4
    B27(2)    R9        1
    B27(2)    R21       1
    B28(2)    OBJ       4
    B28(2)    R10       1
    B28(2)    R22       1
    B29(2)    OBJ       4
    B29(2)    R11       1
    B29(2)    R23       1
    B30(2)    OBJ       4
    B30(2)    R6        -1
    B30(2)    R18       -1
    B31(2)    OBJ       4
    B31(2)    R7        -1
    B31(2)    R19       -1
    B32(2)    OBJ       4
    B32(2)    R8        -1
    B32(2)    R20       -1
    B33(2)    OBJ       4
    B33(2)    R9        -1
    B33(2)    R21       -1
    B34(2)    OBJ       4
    B34(2)    R10       -1
    B34(2)    R22       -1
    B35(2)    OBJ       4
    B35(2)    R11       -1
    B35(2)    R23       -1
    B36(2)    OBJ       8
    B36(2)    R6        1
    B36(2)    R12       1
    B37(2)    OBJ       8
    B37(2)    R7        1
    B37(2)    R13       1
    B38(2)    OBJ       8
    B38(2)    R8        1
    B38(2)    R14       1
    B39(2)    OBJ       8
    B39(2)    R9        1
    B39(2)    R15       1
    B40(2)    OBJ       8
    B40(2)    R10       1
    B40(2)    R16       1
    B41(2)    OBJ       8
    B41(2)    R11       1
    B41(2)    R17       1
    B42(2)    OBJ       8
    B42(2)    R6        -1
    B42(2)    R12       -1
    B43(2)    OBJ       8
    B43(2)    R7        -1
    B43(2)    R13       -1
    B44(2)    OBJ       8
    B44(2)    R8        -1
    B44(2)    R14       -1
    B45(2)    OBJ       8
    B45(2)    R9        -1
    B45(2)    R15       -1
    B46(2)    OBJ       8
    B46(2)    R10       -1
    B46(2)    R16       -1
    B47(2)    OBJ       8
    B47(2)    R11       -1
    B47(2)    R17       -1
    B48(2)    OBJ       4
    B48(2)    R12       1
    B48(2)    R30       1
    B49(2)    OBJ       4
    B49(2)    R13       1
    B49(2)    R31       1
    B50(2)    OBJ       4
    B50(2)    R14       1
    B50(2)    R32       1
    B51(2)    OBJ       4
    B51(2)    R15       1
    B51(2)    R33       1
    B52(2)    OBJ       4
    B52(2)    R16       1
    B52(2)    R34       1
    B53(2)    OBJ       4
    B53(2)    R17       1
    B53(2)    R35       1
    B54(2)    OBJ       4
    B54(2)    R12       -1
    B54(2)    R30       -1
    B55(2)    OBJ       4
    B55(2)    R13       -1
    B55(2)    R31       -1
    B56(2)    OBJ       4
    B56(2)    R14       -1
    B56(2)    R32       -1
    B57(2)    OBJ       4
    B57(2)    R15       -1
    B57(2)    R33       -1
    B58(2)    OBJ       4
    B58(2)    R16       -1
    B58(2)    R34       -1
    B59(2)    OBJ       4
    B59(2)    R17       -1
    B59(2)    R35       -1
    B60(2)    OBJ       3
    B60(2)    R18       1
    B60(2)    R42       1
    B61(2)    OBJ       3
    B61(2)    R19       1
    B61(2)    R43       1
    B62(2)    OBJ       3
    B62(2)    R20       1
    B62(2)    R44       1
    B63(2)    OBJ       3
    B63(2)    R21       1
    B63(2)    R45       1
    B64(2)    OBJ       3
    B64(2)    R22       1
    B64(2)    R46       1
    B65(2)    OBJ       3
    B65(2)    R23       1
    B65(2)    R47       1
    B66(2)    OBJ       3
    B66(2)    R18       -1
    B66(2)    R42       -1
    B67(2)    OBJ       3
    B67(2)    R19       -1
    B67(2)    R43       -1
    B68(2)    OBJ       3
    B68(2)    R20       -1
    B68(2)    R44       -1
    B69(2)    OBJ       3
    B69(2)    R21       -1
    B69(2)    R45       -1
    B70(2)    OBJ       3
    B70(2)    R22       -1
    B70(2)    R46       -1
    B71(2)    OBJ       3
    B71(2)    R23       -1
    B71(2)    R47       -1
    B72(2)    OBJ       5
    B72(2)    R18       1
    B72(2)    R24       1
    B73(2)    OBJ       5
    B73(2)    R19       1
    B73(2)    R25       1
    B74(2)    OBJ       5
    B74(2)    R20       1
    B74(2)    R26       1
    B75(2)    OBJ       5
    B75(2)    R21       1
    B75(2)    R27       1
    B76(2)    OBJ       5
    B76(2)    R22       1
    B76(2)    R28       1
    B77(2)    OBJ       5
    B77(2)    R23       1
    B77(2)    R29       1
    B78(2)    OBJ       5
    B78(2)    R18       -1
    B78(2)    R24       -1
    B79(2)    OBJ       5
    B79(2)    R19       -1
    B79(2)    R25       -1
    B80(2)    OBJ       5
    B80(2)    R20       -1
    B80(2)    R26       -1
    B81(2)    OBJ       5
    B81(2)    R21       -1
    B81(2)    R27       -1
    B82(2)    OBJ       5
    B82(2)    R22       -1
    B82(2)    R28       -1
    B83(2)    OBJ       5
    B83(2)    R23       -1
    B83(2)    R29       -1
    B84(2)    OBJ       8
    B84(2)    R24       1
    B84(2)    R60       1
    B85(2)    OBJ       8
    B85(2)    R25       1
    B85(2)    R61       1
    B86(2)    OBJ       8
    B86(2)    R26       1
    B86(2)    R62       1
    B87(2)    OBJ       8
    B87(2)    R27       1
    B87(2)    R63       1
    B88(2)    OBJ       8
    B88(2)    R28       1
    B88(2)    R64       1
    B89(2)    OBJ       8
    B89(2)    R29       1
    B89(2)    R65       1
    B90(2)    OBJ       8
    B90(2)    R24       -1
    B90(2)    R60       -1
    B91(2)    OBJ       8
    B91(2)    R25       -1
    B91(2)    R61       -1
    B92(2)    OBJ       8
    B92(2)    R26       -1
    B92(2)    R62       -1
    B93(2)    OBJ       8
    B93(2)    R27       -1
    B93(2)    R63       -1
    B94(2)    OBJ       8
    B94(2)    R28       -1
    B94(2)    R64       -1
    B95(2)    OBJ       8
    B95(2)    R29       -1
    B95(2)    R65       -1
    B96(2)    OBJ       3
    B96(2)    R24       1
    B96(2)    R30       1
    B97(2)    OBJ       3
    B97(2)    R25       1
    B97(2)    R31       1
    B98(2)    OBJ       3
    B98(2)    R26       1
    B98(2)    R32       1
    B99(2)    OBJ       3
    B99(2)    R27       1
    B99(2)    R33       1
    B100(2)   OBJ       3
    B100(2)   R28       1
    B100(2)   R34       1
    B101(2)   OBJ       3
    B101(2)   R29       1
    B101(2)   R35       1
    B102(2)   OBJ       3
    B102(2)   R24       -1
    B102(2)   R30       -1
    B103(2)   OBJ       3
    B103(2)   R25       -1
    B103(2)   R31       -1
    B104(2)   OBJ       3
    B104(2)   R26       -1
    B104(2)   R32       -1
    B105(2)   OBJ       3
    B105(2)   R27       -1
    B105(2)   R33       -1
    B106(2)   OBJ       3
    B106(2)   R28       -1
    B106(2)   R34       -1
    B107(2)   OBJ       3
    B107(2)   R29       -1
    B107(2)   R35       -1
    B108(2)   OBJ       8
    B108(2)   R30       1
    B108(2)   R66       1
    B109(2)   OBJ       8
    B109(2)   R31       1
    B109(2)   R67       1
    B110(2)   OBJ       8
    B110(2)   R32       1
    B110(2)   R68       1
    B111(2)   OBJ       8
    B111(2)   R33       1
    B111(2)   R69       1
    B112(2)   OBJ       8
    B112(2)   R34       1
    B112(2)   R70       1
    B113(2)   OBJ       8
    B113(2)   R35       1
    B113(2)   R71       1
    B114(2)   OBJ       8
    B114(2)   R30       -1
    B114(2)   R66       -1
    B115(2)   OBJ       8
    B115(2)   R31       -1
    B115(2)   R67       -1
    B116(2)   OBJ       8
    B116(2)   R32       -1
    B116(2)   R68       -1
    B117(2)   OBJ       8
    B117(2)   R33       -1
    B117(2)   R69       -1
    B118(2)   OBJ       8
    B118(2)   R34       -1
    B118(2)   R70       -1
    B119(2)   OBJ       8
    B119(2)   R35       -1
    B119(2)   R71       -1
    B120(2)   OBJ       5
    B120(2)   R36       1
    B120(2)   R48       1
    B121(2)   OBJ       5
    B121(2)   R37       1
    B121(2)   R49       1
    B122(2)   OBJ       5
    B122(2)   R38       1
    B122(2)   R50       1
    B123(2)   OBJ       5
    B123(2)   R39       1
    B123(2)   R51       1
    B124(2)   OBJ       5
    B124(2)   R40       1
    B124(2)   R52       1
    B125(2)   OBJ       5
    B125(2)   R41       1
    B125(2)   R53       1
    B126(2)   OBJ       5
    B126(2)   R36       -1
    B126(2)   R48       -1
    B127(2)   OBJ       5
    B127(2)   R37       -1
    B127(2)   R49       -1
    B128(2)   OBJ       5
    B128(2)   R38       -1
    B128(2)   R50       -1
    B129(2)   OBJ       5
    B129(2)   R39       -1
    B129(2)   R51       -1
    B130(2)   OBJ       5
    B130(2)   R40       -1
    B130(2)   R52       -1
    B131(2)   OBJ       5
    B131(2)   R41       -1
    B131(2)   R53       -1
    B132(2)   OBJ       4
    B132(2)   R36       1
    B132(2)   R42       1
    B133(2)   OBJ       4
    B133(2)   R37       1
    B133(2)   R43       1
    B134(2)   OBJ       4
    B134(2)   R38       1
    B134(2)   R44       1
    B135(2)   OBJ       4
    B135(2)   R39       1
    B135(2)   R45       1
    B136(2)   OBJ       4
    B136(2)   R40       1
    B136(2)   R46       1
    B137(2)   OBJ       4
    B137(2)   R41       1
    B137(2)   R47       1
    B138(2)   OBJ       4
    B138(2)   R36       -1
    B138(2)   R42       -1
    B139(2)   OBJ       4
    B139(2)   R37       -1
    B139(2)   R43       -1
    B140(2)   OBJ       4
    B140(2)   R38       -1
    B140(2)   R44       -1
    B141(2)   OBJ       4
    B141(2)   R39       -1
    B141(2)   R45       -1
    B142(2)   OBJ       4
    B142(2)   R40       -1
    B142(2)   R46       -1
    B143(2)   OBJ       4
    B143(2)   R41       -1
    B143(2)   R47       -1
    B144(2)   OBJ       5
    B144(2)   R42       1
    B144(2)   R54       1
    B145(2)   OBJ       5
    B145(2)   R43       1
    B145(2)   R55       1
    B146(2)   OBJ       5
    B146(2)   R44       1
    B146(2)   R56       1
    B147(2)   OBJ       5
    B147(2)   R45       1
    B147(2)   R57       1
    B148(2)   OBJ       5
    B148(2)   R46       1
    B148(2)   R58       1
    B149(2)   OBJ       5
    B149(2)   R47       1
    B149(2)   R59       1
    B150(2)   OBJ       5
    B150(2)   R42       -1
    B150(2)   R54       -1
    B151(2)   OBJ       5
    B151(2)   R43       -1
    B151(2)   R55       -1
    B152(2)   OBJ       5
    B152(2)   R44       -1
    B152(2)   R56       -1
    B153(2)   OBJ       5
    B153(2)   R45       -1
    B153(2)   R57       -1
    B154(2)   OBJ       5
    B154(2)   R46       -1
    B154(2)   R58       -1
    B155(2)   OBJ       5
    B155(2)   R47       -1
    B155(2)   R59       -1
    B156(2)   OBJ       4
    B156(2)   R48       1
    B156(2)   R54       1
    B157(2)   OBJ       4
    B157(2)   R49       1
    B157(2)   R55       1
    B158(2)   OBJ       4
    B158(2)   R50       1
    B158(2)   R56       1
    B159(2)   OBJ       4
    B159(2)   R51       1
    B159(2)   R57       1
    B160(2)   OBJ       4
    B160(2)   R52       1
    B160(2)   R58       1
    B161(2)   OBJ       4
    B161(2)   R53       1
    B161(2)   R59       1
    B162(2)   OBJ       4
    B162(2)   R48       -1
    B162(2)   R54       -1
    B163(2)   OBJ       4
    B163(2)   R49       -1
    B163(2)   R55       -1
    B164(2)   OBJ       4
    B164(2)   R50       -1
    B164(2)   R56       -1
    B165(2)   OBJ       4
    B165(2)   R51       -1
    B165(2)   R57       -1
    B166(2)   OBJ       4
    B166(2)   R52       -1
    B166(2)   R58       -1
    B167(2)   OBJ       4
    B167(2)   R53       -1
    B167(2)   R59       -1
    B168(2)   OBJ       5
    B168(2)   R54       1
    B168(2)   R60       1
    B169(2)   OBJ       5
    B169(2)   R55       1
    B169(2)   R61       1
    B170(2)   OBJ       5
    B170(2)   R56       1
    B170(2)   R62       1
    B171(2)   OBJ       5
    B171(2)   R57       1
    B171(2)   R63       1
    B172(2)   OBJ       5
    B172(2)   R58       1
    B172(2)   R64       1
    B173(2)   OBJ       5
    B173(2)   R59       1
    B173(2)   R65       1
    B174(2)   OBJ       5
    B174(2)   R54       -1
    B174(2)   R60       -1
    B175(2)   OBJ       5
    B175(2)   R55       -1
    B175(2)   R61       -1
    B176(2)   OBJ       5
    B176(2)   R56       -1
    B176(2)   R62       -1
    B177(2)   OBJ       5
    B177(2)   R57       -1
    B177(2)   R63       -1
    B178(2)   OBJ       5
    B178(2)   R58       -1
    B178(2)   R64       -1
    B179(2)   OBJ       5
    B179(2)   R59       -1
    B179(2)   R65       -1
    B180(2)   OBJ       3
    B180(2)   R60       1
    B180(2)   R66       1
    B181(2)   OBJ       3
    B181(2)   R61       1
    B181(2)   R67       1
    B182(2)   OBJ       3
    B182(2)   R62       1
    B182(2)   R68       1
    B183(2)   OBJ       3
    B183(2)   R63       1
    B183(2)   R69       1
    B184(2)   OBJ       3
    B184(2)   R64       1
    B184(2)   R70       1
    B185(2)   OBJ       3
    B185(2)   R65       1
    B185(2)   R71       1
    B186(2)   OBJ       3
    B186(2)   R60       -1
    B186(2)   R66       -1
    B187(2)   OBJ       3
    B187(2)   R61       -1
    B187(2)   R67       -1
    B188(2)   OBJ       3
    B188(2)   R62       -1
    B188(2)   R68       -1
    B189(2)   OBJ       3
    B189(2)   R63       -1
    B189(2)   R69       -1
    B190(2)   OBJ       3
    B190(2)   R64       -1
    B190(2)   R70       -1
    B191(2)   OBJ       3
    B191(2)   R65       -1
    B191(2)   R71       -1
    MARKER    'MARKER'                 'INTEND'
RHS
    RHS1      R0        1
    RHS1      R11       1
    RHS1      R13       -1
    RHS1      R20       1
    RHS1      R21       -1
    RHS1      R32       -1
    RHS1      R40       1
    RHS1      R46       -1
    RHS1      R49       1
    RHS1      R63       1
    RHS1      R65       -1
    RHS1      R66       -1
BOUNDS
 BV BND1      B0(2)   
 BV BND1      B1(2)   
 BV BND1      B2(2)   
 BV BND1      B3(2)   
 BV BND1      B4(2)   
 BV BND1      B5(2)   
 BV BND1      B6(2)   
 BV BND1      B7(2)   
 BV BND1      B8(2)   
 BV BND1      B9(2)   
 BV BND1      B10(2)  
 BV BND1      B11(2)  
 BV BND1      B12(2)  
 BV BND1      B13(2)  
 BV BND1      B14(2)  
 BV BND1      B15(2)  
 BV BND1      B16(2)  
 BV BND1      B17(2)  
 BV BND1      B18(2)  
 BV BND1      B19(2)  
 BV BND1      B20(2)  
 BV BND1      B21(2)  
 BV BND1      B22(2)  
 BV BND1      B23(2)  
 BV BND1      B24(2)  
 BV BND1      B25(2)  
 BV BND1      B26(2)  
 BV BND1      B27(2)  
 BV BND1      B28(2)  
 BV BND1      B29(2)  
 BV BND1      B30(2)  
 BV BND1      B31(2)  
 BV BND1      B32(2)  
 BV BND1      B33(2)  
 BV BND1      B34(2)  
 BV BND1      B35(2)  
 BV BND1      B36(2)  
 BV BND1      B37(2)  
 BV BND1      B38(2)  
 BV BND1      B39(2)  
 BV BND1      B40(2)  
 BV BND1      B41(2)  
 BV BND1      B42(2)  
 BV BND1      B43(2)  
 BV BND1      B44(2)  
 BV BND1      B45(2)  
 BV BND1      B46(2)  
 BV BND1      B47(2)  
 BV BND1      B48(2)  
 BV BND1      B49(2)  
 BV BND1      B50(2)  
 BV BND1      B51(2)  
 BV BND1      B52(2)  
 BV BND1      B53(2)  
 BV BND1      B54(2)  
 BV BND1      B55(2)  
 BV BND1      B56(2)  
 BV BND1      B57(2)  
 BV BND1      B58(2)  
 BV BND1      B59(2)  
 BV BND1      B60(2)  
 BV BND1      B61(2)  
 BV BND1      B62(2)  
 BV BND1      B63(2)  
 BV BND1      B64(2)  
 BV BND1      B65(2)  
 BV BND1      B66(2)  
 BV BND1      B67(2)  
 BV BND1      B68(2)  
 BV BND1      B69(2)  
 BV BND1      B70(2)  
 BV BND1      B71(2)  
 BV BND1      B72(2)  
 BV BND1      B73(2)  
 BV BND1      B74(2)  
 BV BND1      B75(2)  
 BV BND1      B76(2)  
 BV BND1      B77(2)  
 BV BND1      B78(2)  
 BV BND1      B79(2)  
 BV BND1      B80(2)  
 BV BND1      B81(2)  
 BV BND1      B82(2)  
 BV BND1      B83(2)  
 BV BND1      B84(2)  
 BV BND1      B85(2)  
 BV BND1      B86(2)  
 BV BND1      B87(2)  
 BV BND1      B88(2)  
 BV BND1      B89(2)  
 BV BND1      B90(2)  
 BV BND1      B91(2)  
 BV BND1      B92(2)  
 BV BND1      B93(2)  
 BV BND1      B94(2)  
 BV BND1      B95(2)  
 BV BND1      B96(2)  
 BV BND1      B97(2)  
 BV BND1      B98(2)  
 BV BND1      B99(2)  
 BV BND1      B100(2) 
 BV BND1      B101(2) 
 BV BND1      B102(2) 
 BV BND1      B103(2) 
 BV BND1      B104(2) 
 BV BND1      B105(2) 
 BV BND1      B106(2) 
 BV BND1      B107(2) 
 BV BND1      B108(2) 
 BV BND1      B109(2) 
 BV BND1      B110(2) 
 BV BND1      B111(2) 
 BV BND1      B112(2) 
 BV BND1      B113(2) 
 BV BND1      B114(2) 
 BV BND1      B115(2) 
 BV BND1      B116(2) 
 BV BND1      B117(2) 
 BV BND1      B118(2) 
 BV BND1      B119(2) 
 BV BND1      B120(2) 
 BV BND1      B121(2) 
 BV BND1      B122(2) 
 BV BND1      B123(2) 
 BV BND1      B124(2) 
 BV BND1      B125(2) 
 BV BND1      B126(2) 
 BV BND1      B127(2) 
 BV BND1      B128(2) 
 BV BND1      B129(2) 
 BV BND1      B130(2) 
 BV BND1      B131(2) 
 BV BND1      B132(2) 
 BV BND1      B133(2) 
 BV BND1      B134(2) 
 BV BND1      B135(2) 
 BV BND1      B136(2) 
 BV BND1      B137(2) 
 BV BND1      B138(2) 
 BV BND1      B139(2) 
 BV BND1      B140(2) 
 BV BND1      B141(2) 
 BV BND1      B142(2) 
 BV BND1      B143(2) 
 BV BND1      B144(2) 
 BV BND1      B145(2) 
 BV BND1      B146(2) 
 BV BND1      B147(2) 
 BV BND1      B148(2) 
 BV BND1      B149(2) 
 BV BND1      B150(2) 
 BV BND1      B151(2) 
 BV BND1      B152(2) 
 BV BND1      B153(2) 
 BV BND1      B154(2) 
 BV BND1      B155(2) 
 BV BND1      B156(2) 
 BV BND1      B157(2) 
 BV BND1      B158(2) 
 BV BND1      B159(2) 
 BV BND1      B160(2) 
 BV BND1      B161(2) 
 BV BND1      B162(2) 
 BV BND1      B163(2) 
 BV BND1      B164(2) 
 BV BND1      B165(2) 
 BV BND1      B166(2) 
 BV BND1      B167(2) 
 BV BND1      B168(2) 
 BV BND1      B169(2) 
 BV BND1      B170(2) 
 BV BND1      B171(2) 
 BV BND1      B172(2) 
 BV BND1      B173(2) 
 BV BND1      B174(2) 
 BV BND1      B175(2) 
 BV BND1      B176(2) 
 BV BND1      B177(2) 
 BV BND1      B178(2) 
 BV BND1      B179(2) 
 BV BND1      B180(2) 
 BV BND1      B181(2) 
 BV BND1      B182(2) 
 BV BND1      B183(2) 
 BV BND1      B184(2) 
 BV BND1      B185(2) 
 BV BND1      B186(2) 
 BV BND1      B187(2) 
 BV BND1      B188(2) 
 BV BND1      B189(2) 
 BV BND1      B190(2) 
 BV BND1      B191(2) 
ENDATA
